100
128
41
8
35
36
5
15
46
24
3
22
23
8
8
40
18
36
44
26
22
56
49
60
41
52
38
15
50
19
23
55
61
17
43
10
62
17
21
23
35
45
31
38
44
50
27
25
24
12
28
42
31
56
44
59
27
33
32
54
57
61
28
40
52
39
52
48
64
26
18
19
4
32
47
30
50
3
6
2
61
31
39
42
53
49
28
9
50
6
64
33
61
32
28
45
51
29
32
47
49
10